data;
param totBlocks=25;
 
param coverage: 1 2 3 4 5 6 7 8 9 10 11 12 13 14 15 16 17 18 19 20 21 22 23 24 25 :=
             1  1 1 0 0 0 1 0 0 0 0  0  0  0  0  0  0  0  0  0  0  0  0  0  0  0
             2  1 1 1 0 0 0 1 0 0 0  0  0  0  0  0  0  0  0  0  0  0  0  0  0  0
             3  0 1 1 1 0 0 0 1 0 0  0  0  0  0  0  0  0  0  0  0  0  0  0  0  0
             4  0 0 1 1 1 0 0 0 1 0  0  0  0  0  0  0  0  0  0  0  0  0  0  0  0
             5  0 0 0 1 1 0 0 0 0 1  0  0  0  0  0  0  0  0  0  0  0  0  0  0  0
             6  1 0 0 0 0 1 1 0 0 0  1  0  0  0  0  0  0  0  0  0  0  0  0  0  0 
             7  0 1 0 0 0 1 1 1 0 0  0  1  0  0  0  0  0  0  0  0  0  0  0  0  0
             8  0 0 1 0 0 0 1 1 1 0  0  0  1  0  0  0  0  0  0  0  0  0  0  0  0
             9  0 0 0 1 0 0 0 1 1 1  0  0  0  1  0  0  0  0  0  0  0  0  0  0  0
             10 0 0 0 0 1 0 0 0 1 1  0  0  0  0  1  0  0  0  0  0  0  0  0  0  0
             11 0 0 0 0 0 1 0 0 0 0  1  1  0  0  0  1  0  0  0  0  0  0  0  0  0
             12 0 0 0 0 0 0 1 0 0 0  1  1  1  0  0  0  1  0  0  0  0  0  0  0  0
             13 0 0 0 0 0 0 0 1 0 0  0  1  1  1  0  0  0  1  0  0  0  0  0  0  0
             14 0 0 0 0 0 0 0 0 1 0  0  0  1  1  1  0  0  0  1  0  0  0  0  0  0
             15 0 0 0 0 0 0 0 0 0 1  0  0  0  1  1  0  0  0  0  1  0  0  0  0  0
             16 0 0 0 0 0 0 0 0 0 0  1  0  0  0  0  1  1  0  0  0  1  0  0  0  0 
             17 0 0 0 0 0 0 0 0 0 0  0  1  0  0  0  1  1  1  0  0  0  1  0  0  0 
             18 0 0 0 0 0 0 0 0 0 0  0  0  1  0  0  0  1  1  1  0  0  0  1  0  0 
             19 0 0 0 0 0 0 0 0 0 0  0  0  0  1  0  0  0  1  1  1  0  0  0  1  0  
             20 0 0 0 0 0 0 0 0 0 0  0  0  0  0  1  0  0  0  1  1  0  0  0  0  1
             21 0 0 0 0 0 0 0 0 0 0  0  0  0  0  0  1  0  0  0  0  1  1  0  0  0
             22 0 0 0 0 0 0 0 0 0 0  0  0  0  0  0  0  1  0  0  0  1  1  1  0  0
             23 0 0 0 0 0 0 0 0 0 0  0  0  0  0  0  0  0  1  0  0  0  1  1  1  0 
             24 0 0 0 0 0 0 0 0 0 0  0  0  0  0  0  0  0  0  1  0  0  0  1  1  1
             25 0 0 0 0 0 0 0 0 0 0  0  0  0  0  0  0  0  0  0  1  0  0  0  1  1;
         
param fixed_cost=180;

param Revenue:= 1  35  2  44 3  63 4  43  5  35 
                6  65  7  44 8  72 9  49 10  66
                11 58  12 58 13 52 14 62 15  31
                16 33  17 39 18 71 19 57 20  41
                21 69  22 74 23 31 24 57 25  41;
            

           